<number of tasks>
29

<cycle time>
54

<task times>
1 7
2 19
3 15
4 5
5 12
6 10
7 8
8 16
9 2
10 6
11 21
12 10
13 9
14 4
15 14
16 7
17 14
18 17
19 10
20 16
21 1
22 9
23 25
24 14
25 14
26 2
27 10
28 7
29 20

<precedence relations>
1,3
1,25
2,6
2,26
3,4
4,5
5,8
5,13
6,8
7,9
7,12
7,25
8,11
8,16
9,10
10,14
10,15
11,17
12,15
13,17
14,16
15,19
16,18
17,20
18,22
19,21
20,23
21,22
22,23
23,24
23,28
24,29
25,29
26,27
27,29
28,29

<setup times forward>
1,10:2
1,12:2
1,14:1
1,15:2
1,19:1
1,21:1
1,25:2
2,4:2
2,10:2
2,12:2
2,13:1
2,14:1
2,15:2
2,19:1
2,21:1
2,25:2
3,4:2
3,10:2
3,12:2
3,14:1
3,15:2
3,19:1
3,21:1
3,25:2
4,2:2
4,5:2
4,6:2
4,7:2
4,9:2
4,14:1
4,19:1
4,21:3
4,26:2
4,27:2
5,8:1
5,10:2
5,12:2
5,13:1
5,14:1
5,15:2
5,19:1
5,21:1
5,25:2
6,4:2
6,8:1
6,10:2
6,12:2
6,13:1
6,14:1
6,15:2
6,19:1
6,21:1
6,25:2
7,4:2
7,8:1
7,11:1
7,12:2
7,13:1
7,17:1
7,20:1
7,25:2
8,7:1
8,9:1
8,10:1
8,12:1
8,15:1
8,21:2
8,25:1
8,26:1
8,27:1
9,4:2
9,8:1
9,10:2
9,11:1
9,12:2
9,13:1
9,17:1
9,20:1
9,25:2
10,1:2
10,2:2
10,3:2
10,5:2
10,6:2
10,8:1
10,11:1
10,13:1
10,14:1
10,17:1
10,20:3
10,26:2
10,27:2
11,7:1
11,9:1
11,10:1
11,12:1
11,15:1
11,21:2
11,22:2
11,25:1
11,26:1
11,27:1
12,1:2
12,2:2
12,3:2
12,5:2
12,6:2
12,8:1
12,9:2
12,11:1
12,13:1
12,14:1
12,16:1
12,17:1
12,18:1
12,20:3
12,26:2
12,27:2
13,2:1
13,6:1
13,7:1
13,9:1
13,10:1
13,12:1
13,15:1
13,21:2
13,22:2
13,25:1
13,26:1
13,27:1
14,1:1
14,2:1
14,3:1
14,4:1
14,5:1
14,6:1
14,12:1
14,15:1
14,20:2
14,21:2
14,25:1
14,26:1
14,27:1
15,1:2
15,2:2
15,3:2
15,5:2
15,6:2
15,8:1
15,11:1
15,13:1
15,14:1
15,16:1
15,17:1
15,18:1
15,19:1
15,20:3
15,26:2
15,27:2
16,12:1
16,15:1
16,20:2
16,21:2
16,25:1
16,26:1
16,27:1
17,7:1
17,9:1
17,10:1
17,12:1
17,15:1
17,20:2
17,21:2
17,22:2
17,25:1
17,26:1
17,27:1
18,12:1
18,15:1
18,20:2
18,21:2
18,22:2
18,25:1
18,26:1
18,27:1
19,1:1
19,2:1
19,3:1
19,4:1
19,5:1
19,6:1
19,20:2
19,21:2
19,25:1
19,26:1
19,27:1
20,7:1
20,9:1
20,10:3
20,12:3
20,14:2
20,15:3
20,16:2
20,18:2
20,19:2
20,25:3
20,26:1
20,27:1
21,1:1
21,2:1
21,3:1
21,4:3
21,5:1
21,6:1
21,8:2
21,11:2
21,13:2
21,14:2
21,16:2
21,17:2
21,18:2
21,25:3
21,26:1
21,27:1
22,11:2
22,13:2
22,17:2
22,25:3
22,26:1
22,27:1
23,24:1
23,25:3
23,26:1
23,27:1
23,28:1
24,25:2
25,2:2
25,3:2
25,5:2
25,6:2
25,8:1
25,9:2
25,11:1
25,13:1
25,14:1
25,16:1
25,17:1
25,18:1
25,19:1
25,20:3
25,21:3
25,22:3
25,23:3
25,24:2
25,26:2
25,27:2
25,28:2
25,29:2
26,4:2
26,8:1
26,10:2
26,11:1
26,12:2
26,13:1
26,14:1
26,15:2
26,16:1
26,17:1
26,18:1
26,19:1
26,20:1
26,21:1
26,22:1
26,23:1
26,25:2
27,4:2
27,8:1
27,10:2
27,11:1
27,12:2
27,13:1
27,14:1
27,15:2
27,16:1
27,17:1
27,18:1
27,19:1
27,20:1
27,21:1
27,22:1
27,23:1
27,25:2
28,25:2

<setup times backward>
1,1:1
1,2:1
1,6:1
1,7:1
1,9:1
1,21:2
1,26:1
1,27:1
2,1:1
2,2:1
2,3:1
2,5:1
2,7:1
2,9:1
2,21:2
3,1:1
3,2:1
3,3:1
3,6:1
3,7:1
3,9:1
3,21:2
3,26:1
3,27:1
4,1:3
4,2:3
4,3:3
4,4:1
4,6:3
4,7:3
4,9:3
4,10:1
4,12:1
4,14:2
4,15:1
4,19:2
4,21:4
4,25:1
4,26:3
4,27:3
5,1:1
5,2:1
5,3:1
5,5:1
5,6:1
5,7:1
5,9:1
5,21:2
5,26:1
5,27:1
6,1:1
6,2:1
6,3:1
6,5:1
6,6:1
6,7:1
6,9:1
6,21:2
6,26:1
6,27:1
7,1:1
7,2:1
7,3:1
7,5:1
7,6:1
7,7:1
7,20:2
7,26:1
7,27:1
8,1:2
8,2:2
8,3:2
8,5:2
8,6:2
8,7:2
8,8:1
8,9:2
8,13:1
8,14:1
8,19:1
8,21:3
8,26:2
8,27:2
9,1:1
9,2:1
9,3:1
9,5:1
9,6:1
9,7:1
9,9:1
9,20:2
9,26:1
9,27:1
10,1:3
10,2:3
10,3:3
10,4:1
10,5:3
10,6:3
10,7:3
10,8:2
10,9:3
10,10:1
10,11:2
10,12:1
10,13:2
10,17:2
10,20:4
10,25:1
10,26:3
10,27:3
11,1:2
11,2:2
11,3:2
11,5:2
11,6:2
11,7:2
11,8:1
11,9:2
11,11:1
11,13:1
11,14:1
11,16:1
11,18:1
11,19:1
11,21:3
11,22:3
11,26:2
11,27:2
12,1:3
12,2:3
12,3:3
12,4:1
12,5:3
12,6:3
12,7:3
12,8:2
12,9:3
12,10:1
12,11:2
12,12:1
12,13:2
12,14:2
12,16:2
12,17:2
12,18:2
12,20:4
12,25:1
12,26:3
12,27:3
13,1:2
13,2:2
13,3:2
13,5:2
13,6:2
13,7:2
13,8:1
13,9:2
13,11:1
13,13:1
13,14:1
13,16:1
13,18:1
13,19:1
13,21:3
13,22:3
13,26:2
13,27:2
14,1:2
14,2:2
14,3:2
14,5:2
14,6:2
14,7:2
14,8:1
14,9:2
14,11:1
14,13:1
14,14:1
14,17:1
14,19:1
14,20:3
14,21:3
14,26:2
14,27:2
15,1:3
15,2:3
15,3:3
15,4:1
15,5:3
15,6:3
15,7:3
15,8:2
15,9:3
15,10:1
15,11:2
15,12:1
15,13:2
15,14:2
15,15:1
15,16:2
15,17:2
15,18:2
15,20:4
15,25:1
15,26:3
15,27:3
16,1:2
16,2:2
16,3:2
16,5:2
16,6:2
16,7:2
16,8:1
16,9:2
16,11:1
16,13:1
16,14:1
16,16:1
16,17:1
16,19:1
16,20:3
16,21:3
16,26:2
16,27:2
17,1:2
17,2:2
17,3:2
17,5:2
17,6:2
17,7:2
17,8:1
17,9:2
17,11:1
17,13:1
17,14:1
17,16:1
17,17:1
17,18:1
17,19:1
17,21:3
17,22:3
17,26:2
17,27:2
18,1:2
18,2:2
18,3:2
18,5:2
18,6:2
18,7:2
18,8:1
18,9:2
18,11:1
18,13:1
18,14:1
18,16:1
18,17:1
18,18:1
18,19:1
18,20:3
18,21:3
18,26:2
18,27:2
19,1:2
19,2:2
19,3:2
19,5:2
19,6:2
19,7:2
19,8:1
19,9:2
19,11:1
19,13:1
19,14:1
19,16:1
19,17:1
19,18:1
19,19:1
19,20:3
19,26:2
19,27:2
20,20:1
20,21:1
20,22:1
21,20:1
21,21:1
22,20:1
22,21:1
22,22:1
23,20:1
23,21:1
23,22:1
23,23:1
24,1:1
24,2:1
24,3:1
24,5:1
24,6:1
24,7:1
24,9:1
24,20:2
24,21:2
24,22:2
24,23:2
24,24:1
24,26:1
24,27:1
24,28:1
25,1:3
25,2:3
25,3:3
25,4:1
25,5:3
25,6:3
25,7:3
25,8:2
25,9:3
25,10:1
25,11:2
25,12:1
25,13:2
25,14:2
25,15:1
25,16:2
25,17:2
25,18:2
25,19:2
25,20:4
25,21:4
25,22:4
25,23:4
25,24:3
25,25:1
25,26:3
25,27:3
25,28:3
26,1:1
26,2:1
26,3:1
26,5:1
26,6:1
26,7:1
26,9:1
26,20:2
26,21:2
26,22:2
26,23:2
26,24:1
26,26:1
26,28:1
27,1:1
27,2:1
27,3:1
27,5:1
27,6:1
27,7:1
27,9:1
27,20:2
27,21:2
27,22:2
27,23:2
27,24:1
27,26:1
27,27:1
27,28:1
28,1:1
28,2:1
28,3:1
28,5:1
28,6:1
28,7:1
28,9:1
28,20:2
28,21:2
28,22:2
28,23:2
28,24:1
28,26:1
28,27:1
28,28:1
29,1:1
29,2:1
29,3:1
29,5:1
29,6:1
29,7:1
29,9:1
29,20:2
29,21:2
29,22:2
29,23:2
29,24:1
29,26:1
29,27:1
29,28:1
29,29:1

<end>

<optimal SALBP-1 value>
7


<rand seed>
467321153

<Lower Bounds>
Lm1=6
Lms1=6
Lm2=0
Lm3=2
Lm4=6
Best=6

<Optimal Stations (Iterations: 10)>
8
